228 300 112 27 191 23 270 89 63 197 91 156 109 114 121 253 93 284 29 243 165 281 291 10 105 15 183 226 75 104 209 76 231 20 103 173 94 72 261 156 268 103 64 128 216 184 81 8 219 109 3 83 141 45 144 297 112 78 275 186 181 183 261 111 255 63 35 48 187 295 256 206 98 19 34 13 254 166 73 173 26 75 7 219 171 203 215 282 280 241 167 213 176 180 23 130 242 58 229 128 104 184 86 201 202 119 266 208 36 90 132 61 164 138 31 34 92 298 16 124 238 234 36 113 113 58 294 107 167 223 286 271 106 71 223 60 241 240 267 276 29 98 89 244 287 119 30 131 116 97 254 106 30 289 270 195 98 264 1 17 238 286 39 43 109 13 154 49 253 172 25 33 21 113 277 60 283 6 190 151 102 195 8 183 183 277 77 32 292 129 48 229 167 138 24 275 151 177 23 155 101 47 187 121 211 215 180 246 220 121 96 73 15 103 8 249 131 136 33 123 265 132 51 131 270 74 157 120 3 179 